(declare-const |z':71:84| Int)
(declare-const |x':69:83| Int)
(declare-const havoc Int)
(declare-const |K:81:82| Int)
(declare-const |havoc:1| Int)
(declare-fun pow (Real Real) Real)
(declare-const |y':70:85| Int)
(assert (and (not (= (ite (<= (+ (- |havoc:1|) 1) 0) 1 0) 0))
               (or (not (<= (- |K:81:82|) 0))
                     (= (+ (- (* (pow 2 |K:81:82|) havoc)) |x':69:83|) 0))
               (or (and (= |K:81:82| 0) (= (- |z':71:84|) 0)
                          (= (+ (- |y':70:85|) |havoc:1|) 0)
                          (= (+ havoc (- |x':69:83|)) 0))
                     (and (<= (+ (- |K:81:82|) 1) 0)
                            (<= (+ (* 2 (to_int (* (/ -1 2) |havoc:1|)))
                                     |havoc:1|) 0)
                            (<= (+ (* -2
                                        (to_int (+ (* (/ 1 2) |havoc:1|)
                                                     (/ -1 2)))) |havoc:1| -2) 0)
                            (<= (+ (mod |havoc:1| 2) -1) 0)
                            (<= (- (mod |havoc:1| 2)) 0)
                            (<= (+ (* 2
                                        (to_int (+ (* (/ 1 2) |havoc:1|)
                                                     (/ -1 2))))
                                     (- |havoc:1|) 1) 0)
                            (<= (+ (* -2 (to_int (* (/ -1 2) |havoc:1|)))
                                     (- |havoc:1|) -1) 0)))
               (<= (- |K:81:82|) 0)
               (= (+ |z':71:84| (* |y':70:85| |x':69:83|)
                       (- (* havoc |havoc:1|))) 0) (<= (- |y':70:85|) 0)
               (<= |y':70:85| 0)
               (not (= (+ |z':71:84| (- (* havoc |havoc:1|))) 0))))
(check-sat)
